p cnf 40 136
1 -2 -3 0
-1 2 -3 0
1 2 3 0
-1 -2 3 0
5 -3 0
5 -4 0
3 4 -5 0
-5 6 -7 0
5 -6 -7 0
-5 -6 7 0
5 6 7 0
8 1 0
8 -7 0
-1 7 -8 0
9 10 -11 0
-9 -10 -11 0
9 -10 11 0
-9 10 11 0
12 -11 0
12 2 0
11 -2 -12 0
13 -12 0
13 10 0
12 -10 -13 0
-1 -13 -14 0
1 13 -14 0
-1 13 14 0
1 -13 14 0
-16 15 0
-16 -2 0
-15 2 16 0
-6 16 -17 0
6 -16 -17 0
-6 -16 17 0
6 16 17 0
-18 14 0
-18 -17 0
-14 17 18 0
-8 18 -19 0
8 -18 -19 0
-8 -18 19 0
8 18 19 0
-16 15 -20 0
16 -15 -20 0
-16 -15 20 0
16 15 20 0
-19 20 -21 0
19 -20 -21 0
-19 -20 21 0
19 20 21 0
-10 22 0
10 22 0
24 22 0
24 -23 0
-22 23 -24 0
-26 25 0
-26 -23 0
-25 23 26 0
27 -9 -28 0
-27 9 -28 0
27 9 28 0
-27 -9 28 0
-29 28 0
-29 27 0
-28 -27 29 0
-29 -5 -30 0
29 5 -30 0
-29 5 30 0
29 -5 30 0
-30 -10 -31 0
30 10 -31 0
-30 10 31 0
30 -10 31 0
-32 -6 0
-32 -1 0
6 1 32 0
-13 -32 -33 0
13 32 -33 0
-13 32 33 0
13 -32 33 0
34 33 0
34 -7 0
-33 7 -34 0
35 31 0
35 34 0
-31 -34 -35 0
-36 -26 0
-36 35 0
26 -35 36 0
-37 -24 0
-37 36 0
24 -36 37 0
-1 22 -38 0
1 -22 -38 0
-1 -22 38 0
1 22 38 0
-37 -38 -39 0
37 38 -39 0
-37 38 39 0
37 -38 39 0
21 39 -40 0
-21 -39 -40 0
21 -39 40 0
-21 39 40 0
38 7 21 9 8 0
23 -32 0
15 -18 -26 20 4 -2 0
-28 -31 -29 -40 0
-4 -6 0
34 21 -28 -32 0
40 9 17 23 14 3 0
-1 -35 0
-10 9 -36 23 6 28 0
-13 11 32 18 0
-14 -13 0
20 -35 -16 -31 0
-5 12 -39 0
26 -37 -38 -23 -17 0
1 -22 -7 16 0
10 36 8 4 0
-35 -5 13 37 0
-35 25 -28 3 0
1 -23 6 24 -39 0
-31 40 0
13 -4 29 -11 -37 0
6 11 -16 0
3 24 31 -2 0
-28 -14 -40 0
10 25 21 1 0
-36 -20 37 0
37 -13 0
-1 -32 17 -3 0
-19 31 -22 -13 -8 32 0
-26 -40 6 -27 0
-30 -35 0
40 0
